c FILE /home/rafael/Documents/HappySet/MIHS/inputs/happygen/output/graph_scale_free_k7_p0.3_v50_20241127_082459.txt
c SOURCE This is a scale-free graph formed for the happy graph colouring problem.
c DESCRIPTION It was generated using the problem generator of Rhyd Lewis
c
c GRAPH STATS
c Seed                             = 339009026
c Number of Nodes                  = 50
c Number of colours k              = 7
c Number of pre-assignments        = 15
c Number of links per new node     = 5
c Density                          = 0.191837
c 
c The degrees of nodes 1 to 50, respectively, are as follows 
c [25, 23, 22, 20, 19, 19, 19, 15, 14, 14, 14, 11, 11, 11, 10, 9, 9, 8, 8, 8, 7, 7, 7, 7, 7, 7, 
c  7, 7, 7, 6, 6, 6, 6, 6, 6, 6, 6, 6, 6, 6, 6, 6, 5, 5, 5, 5, 5, 5, 5, 5] 
c  
p edge 50 235 7
e 1 2
e 1 3
e 1 4
e 1 5
e 1 6
e 1 8
e 1 9
e 1 10
e 1 11
e 1 15
e 1 18
e 1 21
e 1 22
e 1 23
e 1 24
e 1 27
e 1 29
e 1 32
e 1 33
e 1 38
e 1 39
e 1 41
e 1 43
e 1 44
e 1 47
e 2 3
e 2 4
e 2 5
e 2 6
e 2 7
e 2 8
e 2 9
e 2 10
e 2 12
e 2 14
e 2 17
e 2 24
e 2 25
e 2 27
e 2 28
e 2 32
e 2 33
e 2 34
e 2 37
e 2 39
e 2 40
e 2 50
e 3 4
e 3 5
e 3 6
e 3 7
e 3 8
e 3 9
e 3 10
e 3 11
e 3 13
e 3 16
e 3 17
e 3 18
e 3 20
e 3 22
e 3 27
e 3 28
e 3 38
e 3 43
e 3 45
e 3 50
e 4 5
e 4 6
e 4 8
e 4 9
e 4 11
e 4 14
e 4 15
e 4 19
e 4 22
e 4 30
e 4 31
e 4 32
e 4 35
e 4 42
e 4 46
e 4 48
e 4 50
e 5 6
e 5 7
e 5 8
e 5 9
e 5 11
e 5 12
e 5 13
e 5 18
e 5 20
e 5 21
e 5 30
e 5 31
e 5 40
e 5 41
e 5 49
e 6 10
e 6 11
e 6 12
e 6 13
e 6 18
e 6 23
e 6 26
e 6 30
e 6 34
e 6 41
e 6 45
e 6 47
e 6 49
e 6 50
e 7 9
e 7 10
e 7 12
e 7 15
e 7 19
e 7 20
e 7 21
e 7 24
e 7 26
e 7 28
e 7 32
e 7 33
e 7 35
e 7 40
e 7 44
e 7 45
e 8 14
e 8 15
e 8 16
e 8 18
e 8 22
e 8 23
e 8 30
e 8 31
e 8 38
e 8 47
e 9 10
e 9 16
e 9 22
e 9 23
e 9 24
e 9 27
e 9 31
e 9 36
e 10 12
e 10 13
e 10 14
e 10 21
e 10 25
e 10 30
e 10 33
e 10 39
e 11 15
e 11 16
e 11 17
e 11 21
e 11 23
e 11 29
e 11 43
e 11 46
e 11 48
e 12 16
e 12 17
e 12 26
e 12 40
e 12 41
e 12 44
e 13 14
e 13 19
e 13 23
e 13 25
e 13 26
e 13 28
e 13 42
e 14 19
e 14 28
e 14 34
e 14 37
e 14 46
e 14 47
e 15 25
e 15 26
e 15 27
e 15 42
e 15 47
e 16 17
e 16 19
e 16 25
e 16 32
e 17 24
e 17 38
e 17 44
e 17 46
e 18 29
e 18 33
e 18 37
e 19 36
e 19 43
e 19 44
e 20 28
e 20 33
e 20 40
e 20 45
e 20 46
e 21 29
e 21 35
e 22 31
e 22 35
e 23 39
e 24 38
e 24 45
e 25 34
e 25 43
e 26 34
e 26 36
e 27 42
e 27 50
e 28 36
e 29 32
e 29 36
e 29 37
e 30 48
e 31 35
e 34 42
e 35 37
e 36 39
e 37 49
e 38 41
e 39 48
e 40 49
e 41 49
e 42 48
n 6 4
n 13 4
n 16 4
n 20 7
n 24 2
n 25 4
n 27 6
n 30 4
n 32 4
n 33 7
n 36 3
n 37 5
n 40 7
n 43 4
n 44 1
